NAME: tsp10_26
COMMENT: 10-tsp problem (Padberg/Rinaldi)
TYPE: TSP
DIMENSION: 10
EDGE_WEIGHT_TYPE : EUC_2D
NODE_COORD_SECTION
1 2 11
2 6 37
3 30 30
4 10 24
5 2 15
6 19 33
7 36 33
8 21 28
9 31 26
10 14 17
